************************************************************************
file with basedata            : mm53_.bas
initial value random generator: 9424
************************************************************************
projects                      :  1
jobs (incl. supersource/sink ):  12
horizon                       :  91
RESOURCES
  - renewable                 :  2   R
  - nonrenewable              :  2   N
  - doubly constrained        :  0   D
************************************************************************
PROJECT INFORMATION:
pronr.  #jobs rel.date duedate tardcost  MPM-Time
    1     10      0       16        8       16
************************************************************************
PRECEDENCE RELATIONS:
jobnr.    #modes  #successors   successors
   1        1          3           2   3   4
   2        3          2           5   8
   3        3          1           6
   4        3          3           6   7   8
   5        3          2           9  11
   6        3          1          11
   7        3          2           9  10
   8        3          1          10
   9        3          1          12
  10        3          1          12
  11        3          1          12
  12        1          0        
************************************************************************
REQUESTS/DURATIONS:
jobnr. mode duration  R 1  R 2  N 1  N 2
------------------------------------------------------------------------
  1      1     0       0    0    0    0
  2      1     6       4    3   10    5
         2     7       4    3    6    4
         3     7       4    1    4    5
  3      1     1      10    8    7    7
         2     9      10    4    7    7
         3    10      10    2    6    7
  4      1     6       7    7    3    2
         2     9       5    5    3    2
         3    10       3    2    2    1
  5      1     2       6    7    8    6
         2     4       5    5    6    5
         3    10       3    3    1    4
  6      1     3       5    7    5    6
         2     5       4    6    5    6
         3     8       4    5    5    3
  7      1     1      10   10    5    8
         2     4       9    9    4    7
         3     6       8    9    3    5
  8      1     4       5    5    5    9
         2     4       6    5    4    9
         3    10       2    4    3    7
  9      1     3       2   10    2    8
         2     5       2   10    2    7
         3    10       1   10    1    4
 10      1     1       6   10    4    3
         2     6       5   10    4    3
         3    10       5    9    2    1
 11      1     7       9    9    5    9
         2    10       8    9    1    9
         3    10       9    9    3    8
 12      1     0       0    0    0    0
************************************************************************
RESOURCEAVAILABILITIES:
  R 1  R 2  N 1  N 2
   22   23   33   48
************************************************************************
MAXIMAL LAGS:
from  to  type  delay
    1   12   ES      0
    1    2   ES      0
    2   12   ES      0
    1    3   ES      0
    3   12   ES      0
    1    4   ES      0
    4   12   ES      0
    1    5   ES      0
    5   12   ES      0
    1    6   ES      0
    6   12   ES      0
    1    7   ES      0
    7   12   ES      0
    1    8   ES      0
    8   12   ES      0
    1    9   ES      0
    9   12   ES      0
    1   10   ES      0
   10   12   ES      0
    1   11   ES      0
   11   12   ES      0
    1   12   ES      0
    2    5   SS     -7
    2    5   SE     10
    2    5   ES      1
    2    5   EE     -4
    2    8   SS      3
    2    8   SE    -10
    2    8   ES     -7
    2    8   EE     -4
    3    6   SS      0
    3    6   SE     -6
    3    6   ES     -5
    3    6   EE     -1
    4    6   SS      8
    4    6   SE      8
    4    6   ES    -10
    4    6   EE     -2
    4    7   SS      2
    4    7   SE     12
    4    7   ES     -9
    4    7   EE      4
    4    8   SS     -4
    4    8   SE    -12
    4    8   ES      7
    4    8   EE    -11
    5    9   SS      5
    5    9   SE    -11
    5    9   ES      9
    5    9   EE     -1
    5   11   SS     -9
    5   11   SE     -7
    5   11   ES    -12
    5   11   EE      4
    6   11   SS    -12
    6   11   SE    -12
    6   11   ES     -2
    6   11   EE      0
    7    9   SS     -3
    7    9   SE    -12
    7    9   ES      6
    7    9   EE      6
    7   10   SS     -1
    7   10   SE    -10
    7   10   ES     -7
    7   10   EE     -6
    8   10   SS      8
    8   10   SE      7
    8   10   ES      3
    8   10   EE     -7
************************************************************************
